units           metal
boundary        p p p
atom_style      atomic

neighbor        2.0 bin
neigh_modify    every 50 delay 0 check no

# lattice       	fcc 3.6342 
# region        	box block 0 3 0 3 0 3
# create_box    	1 box
# create_atoms    1 box
#read_data	    ../lmp/copper.lmp
mass		    1 63.546

#replicate     	4 4 4
pair_style	    deepmd ../model/graph-original.pb
pair_coeff	

velocity        all create 330.0 23456789

fix             1 all nve
timestep        0.0005
thermo_style    custom step pe ke etotal temp press vol
thermo          20


run             99

#write_data	copper.lmp  
